3 15
323 364 279 
0 100 90 19 9 37 27 65 12 73 44 68 81 2
1 29 19 13 3 90 80 96 46 21 68 76 40 3
2 49 39 91 81 26 16 85 33 41 58 100 17 3
3 57 47 74 64 82 72 49 99 100 89 97 100 3
4 31 21 109 99 80 70 60 63 56 12 57 4 3
5 27 17 35 25 36 26 64 4 4 19 63 60 1
6 60 50 14 4 61 51 85 45 15 88 74 29 3
7 83 73 67 57 44 34 55 71 15 22 100 41 1
8 21 11 71 61 22 12 68 42 11 82 50 10 3
9 96 86 73 63 41 31 79 61 15 89 74 64 2
10 14 4 61 51 15 5 17 92 95 31 50 68 2
11 16 6 24 14 33 23 74 15 32 20 46 82 3
12 106 96 32 22 59 49 54 82 45 37 88 90 3
13 56 46 105 95 53 43 14 72 2 58 18 41 1
14 52 42 91 81 29 19 28 10 9 81 100 78 3
